\ Model QCP
\ LP format - for model browsing. Use MPS format to capture full model detail.
Minimize
  z + 1.27 y
Subject To
 Cut_0: z + [ 1.387434554973821 y ^2 ] >= 5609.513089005235
 Cut_1: z + [ 0.5897435897435894 y ^2 ] >= 4342.76923076923
 Cut_2: z + [ 0.0693950177935942 y ^2 ] >= 3453.927046263345
 Cut_3: z + [ ] >= 3295
Bounds
 3295 <= z <= 5905
 27.73084924772409 <= y <= 47.83304297240559
End
